c "917040.clq"
p edge 255 3824
e 1 17
e 1 18
e 1 19
e 1 20
e 1 21
e 1 24
e 1 26
e 1 32
e 1 34
e 1 35
e 1 37
e 1 39
e 1 53
e 1 62
e 1 65
e 1 73
e 1 76
e 1 86
e 1 87
e 1 98
e 1 112
e 1 114
e 1 145
e 1 181
e 1 194
e 1 209
e 1 222
e 1 226
e 1 245
e 2 17
e 2 18
e 2 19
e 2 20
e 2 22
e 2 24
e 2 26
e 2 28
e 2 29
e 2 31
e 2 34
e 2 36
e 2 38
e 2 41
e 2 43
e 2 45
e 2 49
e 2 50
e 2 52
e 2 54
e 2 55
e 2 58
e 2 68
e 2 76
e 2 84
e 2 87
e 2 89
e 2 122
e 2 123
e 2 131
e 2 132
e 2 139
e 2 144
e 2 145
e 2 154
e 2 157
e 2 160
e 2 181
e 2 185
e 2 196
e 2 215
e 2 224
e 2 225
e 2 234
e 2 242
e 2 254
e 3 17
e 3 19
e 3 20
e 3 21
e 3 22
e 3 23
e 3 24
e 3 26
e 3 27
e 3 32
e 3 34
e 3 40
e 3 43
e 3 46
e 3 49
e 3 50
e 3 56
e 3 59
e 3 60
e 3 61
e 3 66
e 3 67
e 3 71
e 3 80
e 3 81
e 3 84
e 3 88
e 3 98
e 3 113
e 3 114
e 3 121
e 3 126
e 3 161
e 3 170
e 3 178
e 3 180
e 3 192
e 3 194
e 3 202
e 3 204
e 3 217
e 3 222
e 3 224
e 3 229
e 3 234
e 4 17
e 4 18
e 4 19
e 4 20
e 4 21
e 4 22
e 4 23
e 4 24
e 4 25
e 4 26
e 4 27
e 4 31
e 4 34
e 4 36
e 4 44
e 4 45
e 4 46
e 4 49
e 4 55
e 4 60
e 4 62
e 4 65
e 4 67
e 4 85
e 4 95
e 4 98
e 4 99
e 4 108
e 4 115
e 4 117
e 4 125
e 4 145
e 4 147
e 4 149
e 4 151
e 4 154
e 4 157
e 4 170
e 4 174
e 4 177
e 4 185
e 4 213
e 4 220
e 4 228
e 4 233
e 4 234
e 4 236
e 4 245
e 4 252
e 5 17
e 5 18
e 5 20
e 5 21
e 5 22
e 5 23
e 5 24
e 5 25
e 5 27
e 5 29
e 5 30
e 5 33
e 5 34
e 5 35
e 5 37
e 5 42
e 5 45
e 5 48
e 5 49
e 5 60
e 5 67
e 5 70
e 5 77
e 5 78
e 5 85
e 5 86
e 5 96
e 5 99
e 5 107
e 5 115
e 5 123
e 5 140
e 5 142
e 5 146
e 5 165
e 5 169
e 5 182
e 5 190
e 5 199
e 5 215
e 5 219
e 5 225
e 5 228
e 5 229
e 5 230
e 5 242
e 5 250
e 5 255
e 6 17
e 6 18
e 6 19
e 6 20
e 6 22
e 6 25
e 6 28
e 6 29
e 6 31
e 6 33
e 6 35
e 6 37
e 6 38
e 6 39
e 6 50
e 6 58
e 6 59
e 6 73
e 6 76
e 6 77
e 6 79
e 6 80
e 6 83
e 6 84
e 6 87
e 6 89
e 6 92
e 6 94
e 6 98
e 6 102
e 6 108
e 6 126
e 6 130
e 6 131
e 6 135
e 6 138
e 6 148
e 6 149
e 6 156
e 6 191
e 6 194
e 6 204
e 6 209
e 6 223
e 6 226
e 6 227
e 6 235
e 6 240
e 6 249
e 6 250
e 7 17
e 7 18
e 7 19
e 7 20
e 7 21
e 7 22
e 7 23
e 7 24
e 7 25
e 7 26
e 7 27
e 7 30
e 7 31
e 7 32
e 7 38
e 7 40
e 7 48
e 7 49
e 7 51
e 7 52
e 7 58
e 7 59
e 7 63
e 7 66
e 7 68
e 7 69
e 7 80
e 7 83
e 7 84
e 7 96
e 7 100
e 7 105
e 7 109
e 7 111
e 7 113
e 7 116
e 7 119
e 7 125
e 7 136
e 7 138
e 7 139
e 7 140
e 7 144
e 7 150
e 7 154
e 7 164
e 7 172
e 7 186
e 7 198
e 7 217
e 7 220
e 7 221
e 7 222
e 7 227
e 7 235
e 7 246
e 7 251
e 8 17
e 8 18
e 8 19
e 8 21
e 8 22
e 8 23
e 8 24
e 8 25
e 8 26
e 8 28
e 8 29
e 8 32
e 8 34
e 8 35
e 8 38
e 8 39
e 8 41
e 8 44
e 8 48
e 8 49
e 8 50
e 8 54
e 8 55
e 8 58
e 8 65
e 8 67
e 8 68
e 8 69
e 8 80
e 8 81
e 8 87
e 8 91
e 8 100
e 8 101
e 8 105
e 8 112
e 8 113
e 8 114
e 8 118
e 8 125
e 8 133
e 8 138
e 8 141
e 8 143
e 8 148
e 8 152
e 8 159
e 8 175
e 8 177
e 8 181
e 8 189
e 8 192
e 8 194
e 8 195
e 8 199
e 8 202
e 8 208
e 8 211
e 8 218
e 8 221
e 8 225
e 8 230
e 8 236
e 8 237
e 8 246
e 9 17
e 9 18
e 9 19
e 9 20
e 9 22
e 9 26
e 9 27
e 9 32
e 9 35
e 9 39
e 9 40
e 9 41
e 9 50
e 9 67
e 9 72
e 9 74
e 9 77
e 9 89
e 9 90
e 9 99
e 9 100
e 9 107
e 9 108
e 9 110
e 9 117
e 9 118
e 9 120
e 9 189
e 9 206
e 9 220
e 9 221
e 9 239
e 9 241
e 9 245
e 9 250
e 10 17
e 10 18
e 10 19
e 10 20
e 10 21
e 10 23
e 10 24
e 10 25
e 10 26
e 10 33
e 10 34
e 10 35
e 10 36
e 10 37
e 10 38
e 10 41
e 10 43
e 10 44
e 10 45
e 10 49
e 10 51
e 10 54
e 10 56
e 10 57
e 10 62
e 10 64
e 10 78
e 10 81
e 10 88
e 10 92
e 10 93
e 10 96
e 10 103
e 10 110
e 10 114
e 10 115
e 10 121
e 10 143
e 10 149
e 10 150
e 10 157
e 10 167
e 10 172
e 10 194
e 10 199
e 10 208
e 10 227
e 10 231
e 10 232
e 10 237
e 10 243
e 11 17
e 11 18
e 11 21
e 11 24
e 11 27
e 11 31
e 11 33
e 11 41
e 11 54
e 11 59
e 11 68
e 11 71
e 11 105
e 11 110
e 11 115
e 11 137
e 11 150
e 11 155
e 11 178
e 11 190
e 11 191
e 11 196
e 11 203
e 11 216
e 11 224
e 11 225
e 11 231
e 11 254
e 12 17
e 12 18
e 12 19
e 12 27
e 12 29
e 12 30
e 12 31
e 12 33
e 12 34
e 12 43
e 12 44
e 12 50
e 12 53
e 12 60
e 12 62
e 12 64
e 12 72
e 12 102
e 12 109
e 12 128
e 12 129
e 12 133
e 12 138
e 12 148
e 12 177
e 12 188
e 12 206
e 12 215
e 12 223
e 12 254
e 13 17
e 13 18
e 13 19
e 13 20
e 13 21
e 13 22
e 13 23
e 13 27
e 13 28
e 13 30
e 13 31
e 13 34
e 13 35
e 13 36
e 13 40
e 13 45
e 13 47
e 13 51
e 13 54
e 13 57
e 13 59
e 13 61
e 13 62
e 13 68
e 13 77
e 13 79
e 13 83
e 13 92
e 13 98
e 13 99
e 13 101
e 13 104
e 13 105
e 13 110
e 13 112
e 13 113
e 13 114
e 13 115
e 13 118
e 13 126
e 13 127
e 13 130
e 13 133
e 13 134
e 13 141
e 13 144
e 13 153
e 13 155
e 13 158
e 13 161
e 13 169
e 13 170
e 13 171
e 13 175
e 13 178
e 13 183
e 13 184
e 13 186
e 13 189
e 13 198
e 13 200
e 13 201
e 13 207
e 13 212
e 13 214
e 13 216
e 13 219
e 13 220
e 13 227
e 13 228
e 13 231
e 13 247
e 13 250
e 14 17
e 14 18
e 14 19
e 14 20
e 14 21
e 14 22
e 14 23
e 14 25
e 14 28
e 14 29
e 14 30
e 14 36
e 14 40
e 14 42
e 14 44
e 14 47
e 14 50
e 14 52
e 14 53
e 14 55
e 14 57
e 14 59
e 14 67
e 14 72
e 14 73
e 14 75
e 14 76
e 14 78
e 14 97
e 14 108
e 14 122
e 14 124
e 14 126
e 14 127
e 14 130
e 14 135
e 14 137
e 14 146
e 14 159
e 14 166
e 14 169
e 14 183
e 14 193
e 14 213
e 14 234
e 14 238
e 14 239
e 14 244
e 15 17
e 15 18
e 15 19
e 15 20
e 15 21
e 15 23
e 15 26
e 15 29
e 15 31
e 15 33
e 15 34
e 15 36
e 15 37
e 15 39
e 15 42
e 15 47
e 15 57
e 15 62
e 15 69
e 15 76
e 15 79
e 15 80
e 15 87
e 15 103
e 15 105
e 15 123
e 15 128
e 15 153
e 15 158
e 15 167
e 15 170
e 15 205
e 15 213
e 15 221
e 16 17
e 16 18
e 16 19
e 16 20
e 16 21
e 16 22
e 16 23
e 16 24
e 16 25
e 16 26
e 16 27
e 16 29
e 16 33
e 16 35
e 16 41
e 16 46
e 16 47
e 16 48
e 16 55
e 16 57
e 16 60
e 16 65
e 16 67
e 16 69
e 16 70
e 16 74
e 16 75
e 16 77
e 16 78
e 16 86
e 16 87
e 16 94
e 16 96
e 16 98
e 16 113
e 16 124
e 16 127
e 16 133
e 16 140
e 16 148
e 16 155
e 16 157
e 16 160
e 16 179
e 16 182
e 16 187
e 16 188
e 16 190
e 16 192
e 16 208
e 16 215
e 16 231
e 16 243
e 17 18
e 17 19
e 17 20
e 17 21
e 17 22
e 17 23
e 17 24
e 17 25
e 17 27
e 17 28
e 17 30
e 17 31
e 17 32
e 17 34
e 17 35
e 17 37
e 17 38
e 17 39
e 17 40
e 17 41
e 17 42
e 17 43
e 17 46
e 17 47
e 17 49
e 17 50
e 17 52
e 17 53
e 17 54
e 17 55
e 17 56
e 17 57
e 17 61
e 17 64
e 17 68
e 17 71
e 17 72
e 17 74
e 17 78
e 17 84
e 17 92
e 17 93
e 17 94
e 17 96
e 17 107
e 17 108
e 17 112
e 17 127
e 17 130
e 17 132
e 17 141
e 17 143
e 17 149
e 17 151
e 17 153
e 17 157
e 17 160
e 17 163
e 17 165
e 17 169
e 17 176
e 17 188
e 17 193
e 17 195
e 17 198
e 17 200
e 17 202
e 17 203
e 17 205
e 17 209
e 17 212
e 17 216
e 17 218
e 17 223
e 17 233
e 17 236
e 17 238
e 17 244
e 17 249
e 18 19
e 18 20
e 18 21
e 18 22
e 18 23
e 18 24
e 18 25
e 18 26
e 18 28
e 18 29
e 18 30
e 18 31
e 18 32
e 18 35
e 18 37
e 18 38
e 18 39
e 18 40
e 18 43
e 18 44
e 18 45
e 18 46
e 18 47
e 18 50
e 18 59
e 18 61
e 18 66
e 18 67
e 18 68
e 18 69
e 18 71
e 18 75
e 18 76
e 18 84
e 18 86
e 18 90
e 18 92
e 18 95
e 18 100
e 18 102
e 18 104
e 18 106
e 18 109
e 18 110
e 18 114
e 18 125
e 18 126
e 18 127
e 18 128
e 18 129
e 18 130
e 18 137
e 18 144
e 18 146
e 18 149
e 18 150
e 18 151
e 18 152
e 18 153
e 18 154
e 18 158
e 18 162
e 18 163
e 18 165
e 18 166
e 18 175
e 18 184
e 18 196
e 18 198
e 18 203
e 18 204
e 18 209
e 18 213
e 18 226
e 18 230
e 18 236
e 18 246
e 19 20
e 19 21
e 19 22
e 19 23
e 19 24
e 19 25
e 19 26
e 19 27
e 19 28
e 19 29
e 19 30
e 19 31
e 19 32
e 19 33
e 19 35
e 19 41
e 19 42
e 19 43
e 19 44
e 19 56
e 19 59
e 19 61
e 19 63
e 19 65
e 19 66
e 19 67
e 19 68
e 19 69
e 19 72
e 19 73
e 19 76
e 19 78
e 19 81
e 19 86
e 19 89
e 19 91
e 19 93
e 19 94
e 19 97
e 19 101
e 19 103
e 19 106
e 19 121
e 19 128
e 19 131
e 19 137
e 19 140
e 19 143
e 19 169
e 19 175
e 19 178
e 19 200
e 19 202
e 19 210
e 19 212
e 19 213
e 19 216
e 19 230
e 19 252
e 20 21
e 20 22
e 20 23
e 20 24
e 20 25
e 20 26
e 20 27
e 20 28
e 20 30
e 20 31
e 20 33
e 20 34
e 20 35
e 20 37
e 20 38
e 20 40
e 20 46
e 20 48
e 20 51
e 20 52
e 20 53
e 20 56
e 20 59
e 20 61
e 20 63
e 20 64
e 20 65
e 20 66
e 20 67
e 20 68
e 20 73
e 20 74
e 20 75
e 20 77
e 20 78
e 20 79
e 20 81
e 20 83
e 20 85
e 20 90
e 20 91
e 20 101
e 20 104
e 20 105
e 20 107
e 20 109
e 20 114
e 20 119
e 20 121
e 20 128
e 20 131
e 20 132
e 20 134
e 20 138
e 20 142
e 20 144
e 20 149
e 20 153
e 20 155
e 20 158
e 20 160
e 20 161
e 20 165
e 20 166
e 20 168
e 20 169
e 20 173
e 20 174
e 20 183
e 20 191
e 20 192
e 20 195
e 20 199
e 20 201
e 20 209
e 20 218
e 20 221
e 20 227
e 20 228
e 20 234
e 20 235
e 20 237
e 20 238
e 20 240
e 21 22
e 21 23
e 21 24
e 21 25
e 21 26
e 21 27
e 21 28
e 21 29
e 21 30
e 21 31
e 21 32
e 21 33
e 21 34
e 21 36
e 21 42
e 21 43
e 21 45
e 21 54
e 21 56
e 21 57
e 21 62
e 21 68
e 21 70
e 21 72
e 21 75
e 21 76
e 21 79
e 21 81
e 21 82
e 21 84
e 21 86
e 21 87
e 21 92
e 21 93
e 21 96
e 21 97
e 21 100
e 21 103
e 21 109
e 21 111
e 21 112
e 21 119
e 21 120
e 21 125
e 21 128
e 21 131
e 21 135
e 21 136
e 21 147
e 21 150
e 21 159
e 21 166
e 21 169
e 21 171
e 21 175
e 21 176
e 21 179
e 21 180
e 21 181
e 21 196
e 21 202
e 21 214
e 21 219
e 21 224
e 21 229
e 21 237
e 21 239
e 21 242
e 21 247
e 21 251
e 22 23
e 22 24
e 22 25
e 22 26
e 22 27
e 22 28
e 22 29
e 22 30
e 22 31
e 22 32
e 22 33
e 22 36
e 22 37
e 22 38
e 22 39
e 22 41
e 22 42
e 22 44
e 22 45
e 22 48
e 22 49
e 22 53
e 22 55
e 22 57
e 22 58
e 22 63
e 22 66
e 22 68
e 22 69
e 22 71
e 22 72
e 22 74
e 22 76
e 22 82
e 22 83
e 22 84
e 22 86
e 22 89
e 22 90
e 22 92
e 22 93
e 22 99
e 22 103
e 22 106
e 22 110
e 22 111
e 22 116
e 22 121
e 22 125
e 22 127
e 22 129
e 22 134
e 22 136
e 22 143
e 22 154
e 22 158
e 22 167
e 22 168
e 22 181
e 22 195
e 22 198
e 22 199
e 22 209
e 22 217
e 22 219
e 22 225
e 22 242
e 22 252
e 22 254
e 23 25
e 23 28
e 23 29
e 23 30
e 23 32
e 23 33
e 23 34
e 23 36
e 23 37
e 23 39
e 23 40
e 23 42
e 23 46
e 23 49
e 23 55
e 23 56
e 23 60
e 23 63
e 23 64
e 23 70
e 23 74
e 23 75
e 23 77
e 23 79
e 23 84
e 23 85
e 23 90
e 23 91
e 23 92
e 23 94
e 23 95
e 23 98
e 23 99
e 23 101
e 23 102
e 23 104
e 23 105
e 23 106
e 23 109
e 23 114
e 23 115
e 23 121
e 23 124
e 23 125
e 23 138
e 23 144
e 23 151
e 23 157
e 23 160
e 23 164
e 23 165
e 23 167
e 23 168
e 23 171
e 23 173
e 23 174
e 23 176
e 23 179
e 23 181
e 23 196
e 23 197
e 23 204
e 23 214
e 23 215
e 23 216
e 23 220
e 23 222
e 23 231
e 23 233
e 23 239
e 23 242
e 23 244
e 23 247
e 24 25
e 24 27
e 24 28
e 24 30
e 24 32
e 24 33
e 24 35
e 24 37
e 24 38
e 24 52
e 24 53
e 24 59
e 24 65
e 24 66
e 24 68
e 24 72
e 24 74
e 24 75
e 24 76
e 24 77
e 24 79
e 24 82
e 24 83
e 24 87
e 24 91
e 24 93
e 24 100
e 24 104
e 24 117
e 24 119
e 24 133
e 24 138
e 24 145
e 24 155
e 24 156
e 24 176
e 24 177
e 24 180
e 24 181
e 24 188
e 24 196
e 24 199
e 24 202
e 24 206
e 24 207
e 24 215
e 24 217
e 24 230
e 24 246
e 24 252
e 24 254
e 25 26
e 25 28
e 25 29
e 25 31
e 25 32
e 25 35
e 25 36
e 25 39
e 25 40
e 25 42
e 25 43
e 25 45
e 25 48
e 25 49
e 25 51
e 25 53
e 25 54
e 25 56
e 25 59
e 25 60
e 25 62
e 25 64
e 25 66
e 25 71
e 25 72
e 25 79
e 25 94
e 25 97
e 25 99
e 25 101
e 25 103
e 25 104
e 25 105
e 25 106
e 25 110
e 25 113
e 25 117
e 25 121
e 25 127
e 25 129
e 25 131
e 25 132
e 25 137
e 25 142
e 25 146
e 25 155
e 25 165
e 25 168
e 25 172
e 25 173
e 25 179
e 25 182
e 25 183
e 25 185
e 25 186
e 25 193
e 25 198
e 25 203
e 25 205
e 25 208
e 25 210
e 25 211
e 25 213
e 25 214
e 25 231
e 25 239
e 25 240
e 25 246
e 25 249
e 25 252
e 26 27
e 26 28
e 26 36
e 26 38
e 26 54
e 26 58
e 26 70
e 26 85
e 26 87
e 26 97
e 26 104
e 26 108
e 26 121
e 26 134
e 26 136
e 26 142
e 26 156
e 26 164
e 26 175
e 26 177
e 26 202
e 26 208
e 26 235
e 26 254
e 27 28
e 27 29
e 27 30
e 27 32
e 27 35
e 27 38
e 27 39
e 27 40
e 27 41
e 27 42
e 27 43
e 27 46
e 27 47
e 27 48
e 27 52
e 27 53
e 27 54
e 27 55
e 27 56
e 27 59
e 27 60
e 27 63
e 27 64
e 27 67
e 27 70
e 27 73
e 27 75
e 27 77
e 27 78
e 27 80
e 27 82
e 27 85
e 27 88
e 27 90
e 27 92
e 27 95
e 27 96
e 27 98
e 27 99
e 27 101
e 27 104
e 27 109
e 27 111
e 27 117
e 27 123
e 27 124
e 27 125
e 27 126
e 27 134
e 27 135
e 27 140
e 27 145
e 27 155
e 27 159
e 27 178
e 27 182
e 27 206
e 27 212
e 27 215
e 27 219
e 27 221
e 27 224
e 27 229
e 27 231
e 27 234
e 27 241
e 27 243
e 27 245
e 28 29
e 28 30
e 28 31
e 28 33
e 28 36
e 28 37
e 28 38
e 28 40
e 28 42
e 28 44
e 28 47
e 28 48
e 28 49
e 28 50
e 28 51
e 28 53
e 28 57
e 28 67
e 28 70
e 28 71
e 28 75
e 28 77
e 28 79
e 28 85
e 28 91
e 28 94
e 28 100
e 28 105
e 28 110
e 28 113
e 28 118
e 28 127
e 28 132
e 28 138
e 28 152
e 28 157
e 28 158
e 28 162
e 28 165
e 28 172
e 28 176
e 28 179
e 28 180
e 28 188
e 28 191
e 28 203
e 28 208
e 28 210
e 28 222
e 28 235
e 28 238
e 28 241
e 28 243
e 28 244
e 28 247
e 28 251
e 28 253
e 29 30
e 29 35
e 29 36
e 29 43
e 29 46
e 29 53
e 29 58
e 29 69
e 29 70
e 29 81
e 29 82
e 29 89
e 29 94
e 29 107
e 29 117
e 29 118
e 29 119
e 29 124
e 29 140
e 29 153
e 29 154
e 29 160
e 29 162
e 29 167
e 29 168
e 29 174
e 29 187
e 29 200
e 29 230
e 29 244
e 29 245
e 29 251
e 29 253
e 30 32
e 30 36
e 30 37
e 30 39
e 30 40
e 30 41
e 30 42
e 30 43
e 30 44
e 30 45
e 30 46
e 30 48
e 30 55
e 30 58
e 30 60
e 30 61
e 30 62
e 30 72
e 30 73
e 30 75
e 30 77
e 30 79
e 30 80
e 30 81
e 30 97
e 30 102
e 30 103
e 30 112
e 30 116
e 30 118
e 30 132
e 30 133
e 30 134
e 30 138
e 30 140
e 30 142
e 30 150
e 30 162
e 30 165
e 30 168
e 30 180
e 30 182
e 30 187
e 30 188
e 30 204
e 30 211
e 30 212
e 30 216
e 30 230
e 30 233
e 30 236
e 30 237
e 30 251
e 30 255
e 31 32
e 31 33
e 31 34
e 31 36
e 31 38
e 31 42
e 31 46
e 31 48
e 31 50
e 31 55
e 31 58
e 31 68
e 31 72
e 31 73
e 31 75
e 31 78
e 31 83
e 31 87
e 31 92
e 31 93
e 31 101
e 31 107
e 31 112
e 31 113
e 31 116
e 31 122
e 31 123
e 31 130
e 31 131
e 31 144
e 31 146
e 31 161
e 31 165
e 31 167
e 31 177
e 31 180
e 31 182
e 31 185
e 31 189
e 31 195
e 31 207
e 31 216
e 31 221
e 31 222
e 31 227
e 31 236
e 31 242
e 32 33
e 32 40
e 32 42
e 32 47
e 32 53
e 32 54
e 32 56
e 32 57
e 32 62
e 32 69
e 32 70
e 32 83
e 32 94
e 32 99
e 32 112
e 32 122
e 32 126
e 32 133
e 32 134
e 32 135
e 32 139
e 32 150
e 32 158
e 32 161
e 32 168
e 32 171
e 32 183
e 32 205
e 32 210
e 32 212
e 32 217
e 32 219
e 32 224
e 32 227
e 32 232
e 32 234
e 32 240
e 32 242
e 32 248
e 33 34
e 33 37
e 33 41
e 33 43
e 33 47
e 33 50
e 33 51
e 33 52
e 33 53
e 33 55
e 33 56
e 33 60
e 33 61
e 33 62
e 33 69
e 33 76
e 33 82
e 33 83
e 33 85
e 33 90
e 33 99
e 33 101
e 33 105
e 33 111
e 33 119
e 33 120
e 33 124
e 33 125
e 33 128
e 33 129
e 33 130
e 33 133
e 33 134
e 33 143
e 33 148
e 33 150
e 33 156
e 33 161
e 33 166
e 33 170
e 33 175
e 33 183
e 33 187
e 33 191
e 33 195
e 33 211
e 33 231
e 34 36
e 34 37
e 34 38
e 34 40
e 34 41
e 34 43
e 34 45
e 34 51
e 34 54
e 34 56
e 34 64
e 34 65
e 34 66
e 34 71
e 34 77
e 34 79
e 34 82
e 34 86
e 34 89
e 34 92
e 34 93
e 34 94
e 34 97
e 34 98
e 34 103
e 34 107
e 34 110
e 34 111
e 34 118
e 34 119
e 34 120
e 34 135
e 34 138
e 34 142
e 34 150
e 34 154
e 34 156
e 34 159
e 34 161
e 34 165
e 34 169
e 34 170
e 34 174
e 34 175
e 34 194
e 34 201
e 34 203
e 34 208
e 34 214
e 34 225
e 34 227
e 34 231
e 34 247
e 34 248
e 35 39
e 35 44
e 35 45
e 35 46
e 35 47
e 35 48
e 35 50
e 35 58
e 35 61
e 35 66
e 35 67
e 35 73
e 35 77
e 35 80
e 35 87
e 35 92
e 35 96
e 35 99
e 35 100
e 35 101
e 35 102
e 35 109
e 35 129
e 35 139
e 35 158
e 35 169
e 35 170
e 35 184
e 35 186
e 35 190
e 35 200
e 35 201
e 35 203
e 35 218
e 35 226
e 35 248
e 36 37
e 36 39
e 36 44
e 36 46
e 36 47
e 36 48
e 36 50
e 36 51
e 36 58
e 36 59
e 36 62
e 36 63
e 36 64
e 36 65
e 36 68
e 36 69
e 36 70
e 36 72
e 36 78
e 36 81
e 36 82
e 36 83
e 36 88
e 36 89
e 36 90
e 36 93
e 36 94
e 36 98
e 36 102
e 36 105
e 36 113
e 36 116
e 36 123
e 36 130
e 36 139
e 36 141
e 36 143
e 36 144
e 36 149
e 36 150
e 36 151
e 36 152
e 36 159
e 36 162
e 36 164
e 36 173
e 36 174
e 36 175
e 36 191
e 36 192
e 36 195
e 36 197
e 36 198
e 36 200
e 36 209
e 36 223
e 36 224
e 36 226
e 36 227
e 36 233
e 36 235
e 36 237
e 36 242
e 37 38
e 37 39
e 37 41
e 37 46
e 37 47
e 37 48
e 37 50
e 37 51
e 37 52
e 37 55
e 37 58
e 37 61
e 37 65
e 37 67
e 37 73
e 37 78
e 37 81
e 37 93
e 37 94
e 37 100
e 37 106
e 37 110
e 37 116
e 37 121
e 37 122
e 37 129
e 37 130
e 37 136
e 37 148
e 37 156
e 37 159
e 37 166
e 37 183
e 37 187
e 37 204
e 37 227
e 37 233
e 37 251
e 37 252
e 38 39
e 38 45
e 38 46
e 38 47
e 38 51
e 38 52
e 38 55
e 38 59
e 38 61
e 38 63
e 38 74
e 38 83
e 38 85
e 38 88
e 38 89
e 38 95
e 38 99
e 38 103
e 38 105
e 38 106
e 38 111
e 38 116
e 38 119
e 38 120
e 38 124
e 38 126
e 38 133
e 38 135
e 38 137
e 38 139
e 38 144
e 38 149
e 38 158
e 38 159
e 38 162
e 38 168
e 38 170
e 38 175
e 38 177
e 38 184
e 38 186
e 38 195
e 38 198
e 38 199
e 38 206
e 38 207
e 38 210
e 38 221
e 38 226
e 38 227
e 38 230
e 38 243
e 39 40
e 39 41
e 39 42
e 39 43
e 39 44
e 39 45
e 39 49
e 39 51
e 39 52
e 39 53
e 39 58
e 39 59
e 39 64
e 39 65
e 39 76
e 39 77
e 39 78
e 39 79
e 39 84
e 39 85
e 39 86
e 39 88
e 39 95
e 39 98
e 39 100
e 39 107
e 39 108
e 39 113
e 39 116
e 39 118
e 39 119
e 39 130
e 39 133
e 39 135
e 39 136
e 39 137
e 39 139
e 39 142
e 39 143
e 39 144
e 39 152
e 39 154
e 39 156
e 39 157
e 39 177
e 39 183
e 39 187
e 39 192
e 39 196
e 39 210
e 39 218
e 39 220
e 39 254
e 40 41
e 40 42
e 40 46
e 40 47
e 40 52
e 40 60
e 40 61
e 40 68
e 40 74
e 40 76
e 40 82
e 40 93
e 40 102
e 40 104
e 40 108
e 40 109
e 40 123
e 40 132
e 40 139
e 40 140
e 40 143
e 40 151
e 40 162
e 40 163
e 40 176
e 40 187
e 40 192
e 40 193
e 40 207
e 40 213
e 40 217
e 40 232
e 40 237
e 40 244
e 40 254
e 41 43
e 41 44
e 41 49
e 41 60
e 41 63
e 41 65
e 41 66
e 41 69
e 41 70
e 41 71
e 41 74
e 41 76
e 41 83
e 41 91
e 41 93
e 41 97
e 41 98
e 41 99
e 41 101
e 41 107
e 41 120
e 41 121
e 41 126
e 41 127
e 41 133
e 41 164
e 41 173
e 41 184
e 41 199
e 41 209
e 41 215
e 41 227
e 41 245
e 41 246
e 42 44
e 42 45
e 42 50
e 42 51
e 42 52
e 42 57
e 42 60
e 42 65
e 42 80
e 42 87
e 42 107
e 42 113
e 42 116
e 42 119
e 42 120
e 42 129
e 42 135
e 42 136
e 42 142
e 42 166
e 42 187
e 42 191
e 42 210
e 42 213
e 42 217
e 42 219
e 42 220
e 42 228
e 42 240
e 42 243
e 42 249
e 42 252
e 43 44
e 43 51
e 43 52
e 43 54
e 43 56
e 43 67
e 43 70
e 43 74
e 43 75
e 43 82
e 43 88
e 43 161
e 43 171
e 43 177
e 43 182
e 43 208
e 43 224
e 43 232
e 43 251
e 44 45
e 44 47
e 44 51
e 44 53
e 44 58
e 44 63
e 44 66
e 44 71
e 44 84
e 44 95
e 44 104
e 44 106
e 44 110
e 44 115
e 44 116
e 44 129
e 44 134
e 44 142
e 44 150
e 44 155
e 44 162
e 44 171
e 44 192
e 44 196
e 44 197
e 44 208
e 44 218
e 44 219
e 44 225
e 44 229
e 44 236
e 45 48
e 45 49
e 45 63
e 45 65
e 45 68
e 45 70
e 45 71
e 45 73
e 45 81
e 45 82
e 45 84
e 45 85
e 45 88
e 45 90
e 45 100
e 45 110
e 45 115
e 45 117
e 45 125
e 45 133
e 45 137
e 45 138
e 45 142
e 45 156
e 45 158
e 45 164
e 45 166
e 45 176
e 45 189
e 45 197
e 45 203
e 45 206
e 45 209
e 45 218
e 45 224
e 45 230
e 45 240
e 45 241
e 45 244
e 46 51
e 46 52
e 46 54
e 46 57
e 46 61
e 46 62
e 46 66
e 46 75
e 46 91
e 46 108
e 46 111
e 46 117
e 46 122
e 46 123
e 46 130
e 46 132
e 46 134
e 46 136
e 46 137
e 46 139
e 46 140
e 46 147
e 46 148
e 46 153
e 46 166
e 46 171
e 46 197
e 46 201
e 46 213
e 46 223
e 46 245
e 46 249
e 46 252
e 46 255
e 47 48
e 47 53
e 47 56
e 47 57
e 47 61
e 47 63
e 47 66
e 47 80
e 47 85
e 47 104
e 47 107
e 47 108
e 47 124
e 47 137
e 47 151
e 47 152
e 47 158
e 47 159
e 47 166
e 47 182
e 47 193
e 47 199
e 47 207
e 47 217
e 47 221
e 47 228
e 47 237
e 48 49
e 48 52
e 48 54
e 48 55
e 48 56
e 48 57
e 48 59
e 48 60
e 48 62
e 48 63
e 48 80
e 48 88
e 48 94
e 48 96
e 48 101
e 48 120
e 48 128
e 48 134
e 48 136
e 48 152
e 48 156
e 48 160
e 48 167
e 48 170
e 48 171
e 48 173
e 48 179
e 48 181
e 48 184
e 48 188
e 48 196
e 48 199
e 48 211
e 48 215
e 48 233
e 48 243
e 48 249
e 49 63
e 49 64
e 49 78
e 49 99
e 49 112
e 49 115
e 49 153
e 49 163
e 49 191
e 49 197
e 49 211
e 49 225
e 49 231
e 49 236
e 49 244
e 50 64
e 50 69
e 50 71
e 50 81
e 50 89
e 50 107
e 50 109
e 50 118
e 50 120
e 50 134
e 50 139
e 50 144
e 50 161
e 50 174
e 50 179
e 50 197
e 50 200
e 50 242
e 50 255
e 51 54
e 51 55
e 51 57
e 51 58
e 51 61
e 51 62
e 51 66
e 51 71
e 51 73
e 51 74
e 51 82
e 51 83
e 51 87
e 51 93
e 51 94
e 51 96
e 51 97
e 51 98
e 51 102
e 51 105
e 51 111
e 51 114
e 51 115
e 51 117
e 51 121
e 51 122
e 51 127
e 51 128
e 51 130
e 51 132
e 51 147
e 51 151
e 51 154
e 51 160
e 51 170
e 51 186
e 51 187
e 51 190
e 51 201
e 51 216
e 51 238
e 51 245
e 51 254
e 52 60
e 52 64
e 52 69
e 52 72
e 52 74
e 52 95
e 52 132
e 52 146
e 52 154
e 52 163
e 52 164
e 52 170
e 52 192
e 52 195
e 52 197
e 52 211
e 52 212
e 52 217
e 52 225
e 52 239
e 53 70
e 53 75
e 53 83
e 53 86
e 53 112
e 53 116
e 53 141
e 53 146
e 53 147
e 53 151
e 53 152
e 53 156
e 53 157
e 53 181
e 53 207
e 53 213
e 53 217
e 53 218
e 54 63
e 54 69
e 54 141
e 54 144
e 54 147
e 54 168
e 54 171
e 54 180
e 54 185
e 54 241
e 55 56
e 55 64
e 55 72
e 55 74
e 55 76
e 55 79
e 55 86
e 55 88
e 55 115
e 55 117
e 55 120
e 55 123
e 55 124
e 55 131
e 55 140
e 55 142
e 55 146
e 55 163
e 55 172
e 55 178
e 55 184
e 55 185
e 55 187
e 55 192
e 55 193
e 55 219
e 55 250
e 56 57
e 56 58
e 56 71
e 56 73
e 56 83
e 56 86
e 56 91
e 56 94
e 56 100
e 56 103
e 56 113
e 56 115
e 56 117
e 56 123
e 56 129
e 56 141
e 56 146
e 56 168
e 56 194
e 56 196
e 56 223
e 56 241
e 56 244
e 56 248
e 56 249
e 57 60
e 57 61
e 57 67
e 57 72
e 57 78
e 57 84
e 57 87
e 57 90
e 57 101
e 57 109
e 57 118
e 57 129
e 57 131
e 57 139
e 57 145
e 57 146
e 57 149
e 57 153
e 57 163
e 57 168
e 57 184
e 57 214
e 57 218
e 57 219
e 57 222
e 57 225
e 57 242
e 58 62
e 58 64
e 58 66
e 58 79
e 58 84
e 58 85
e 58 90
e 58 91
e 58 95
e 58 99
e 58 112
e 58 136
e 58 153
e 58 154
e 58 167
e 58 189
e 58 197
e 58 214
e 58 225
e 58 227
e 58 236
e 58 237
e 59 63
e 59 64
e 59 69
e 59 77
e 59 82
e 59 86
e 59 91
e 59 97
e 59 113
e 59 123
e 59 125
e 59 132
e 59 147
e 59 155
e 59 159
e 59 195
e 59 210
e 59 211
e 59 249
e 60 82
e 60 84
e 60 91
e 60 97
e 60 101
e 60 109
e 60 115
e 60 131
e 60 133
e 60 141
e 60 146
e 60 147
e 60 151
e 60 153
e 60 168
e 60 171
e 60 182
e 60 186
e 60 189
e 60 207
e 60 208
e 60 214
e 60 216
e 60 234
e 60 244
e 60 248
e 60 251
e 60 253
e 61 70
e 61 71
e 61 73
e 61 90
e 61 100
e 61 102
e 61 108
e 61 118
e 61 119
e 61 122
e 61 139
e 61 140
e 61 146
e 61 152
e 61 169
e 61 172
e 61 173
e 61 190
e 61 234
e 62 65
e 62 74
e 62 81
e 62 86
e 62 96
e 62 97
e 62 102
e 62 103
e 62 118
e 62 120
e 62 128
e 62 172
e 62 188
e 62 213
e 62 216
e 62 218
e 62 233
e 62 234
e 62 239
e 62 247
e 62 248
e 62 251
e 63 78
e 63 80
e 63 88
e 63 92
e 63 102
e 63 105
e 63 119
e 63 124
e 63 134
e 63 136
e 63 145
e 63 147
e 63 176
e 63 186
e 63 200
e 63 209
e 63 222
e 63 248
e 64 65
e 64 71
e 64 83
e 64 91
e 64 111
e 64 122
e 64 132
e 64 143
e 64 146
e 64 153
e 64 154
e 64 163
e 64 164
e 64 205
e 64 207
e 64 221
e 64 230
e 64 248
e 65 79
e 65 89
e 65 102
e 65 118
e 65 125
e 65 145
e 65 156
e 65 163
e 65 201
e 65 228
e 66 79
e 66 87
e 66 90
e 66 93
e 66 101
e 66 108
e 66 109
e 66 114
e 66 117
e 66 120
e 66 124
e 66 127
e 66 140
e 66 153
e 66 157
e 66 172
e 66 178
e 66 196
e 66 200
e 66 206
e 66 211
e 66 217
e 66 222
e 66 224
e 66 238
e 66 241
e 66 248
e 66 253
e 67 73
e 67 80
e 67 81
e 67 109
e 67 121
e 67 142
e 67 172
e 67 177
e 67 180
e 67 190
e 67 201
e 67 236
e 67 238
e 67 252
e 68 70
e 68 72
e 68 75
e 68 82
e 68 85
e 68 88
e 68 104
e 68 106
e 68 110
e 68 111
e 68 113
e 68 114
e 68 116
e 68 137
e 68 156
e 68 160
e 68 161
e 68 162
e 68 169
e 68 180
e 68 181
e 68 191
e 68 207
e 68 224
e 68 229
e 68 233
e 68 243
e 68 245
e 69 88
e 69 89
e 69 111
e 69 123
e 69 137
e 69 141
e 69 158
e 69 162
e 69 170
e 69 180
e 69 184
e 69 187
e 69 189
e 69 191
e 69 199
e 69 205
e 69 218
e 69 243
e 70 74
e 70 75
e 70 77
e 70 88
e 70 97
e 70 100
e 70 112
e 70 144
e 70 164
e 70 166
e 70 177
e 70 190
e 70 201
e 70 223
e 70 235
e 70 243
e 71 76
e 71 78
e 71 95
e 71 110
e 71 112
e 71 113
e 71 123
e 71 128
e 71 148
e 71 170
e 71 202
e 71 223
e 71 228
e 71 255
e 72 73
e 72 105
e 72 106
e 72 117
e 72 120
e 72 135
e 72 138
e 72 162
e 72 163
e 72 167
e 72 180
e 72 185
e 72 215
e 72 232
e 72 237
e 72 239
e 72 250
e 73 80
e 73 81
e 73 85
e 73 92
e 73 100
e 73 129
e 73 158
e 73 177
e 73 195
e 73 252
e 74 116
e 74 142
e 74 143
e 74 155
e 74 162
e 74 185
e 74 187
e 74 197
e 74 206
e 74 212
e 74 221
e 74 223
e 74 239
e 75 80
e 75 85
e 75 97
e 75 102
e 75 111
e 75 114
e 75 115
e 75 118
e 75 122
e 75 124
e 75 141
e 75 147
e 75 179
e 75 192
e 75 199
e 75 226
e 75 239
e 75 251
e 76 80
e 76 89
e 76 90
e 76 95
e 76 99
e 76 104
e 76 108
e 76 113
e 76 136
e 76 153
e 76 185
e 76 195
e 76 205
e 76 206
e 76 245
e 77 91
e 77 96
e 77 104
e 77 109
e 77 125
e 77 157
e 77 171
e 77 174
e 77 179
e 77 193
e 77 197
e 77 203
e 77 208
e 77 217
e 77 220
e 77 238
e 78 82
e 78 84
e 78 88
e 78 89
e 78 92
e 78 96
e 78 102
e 78 103
e 78 117
e 78 121
e 78 126
e 78 128
e 78 143
e 78 145
e 78 147
e 78 150
e 78 152
e 78 161
e 78 169
e 78 173
e 78 178
e 78 179
e 78 182
e 78 189
e 78 193
e 78 201
e 78 202
e 78 204
e 78 210
e 78 211
e 78 225
e 78 235
e 78 238
e 78 239
e 78 255
e 79 88
e 79 96
e 79 97
e 79 98
e 79 103
e 79 107
e 79 120
e 79 126
e 79 128
e 79 130
e 79 135
e 79 223
e 79 230
e 79 254
e 80 81
e 80 86
e 80 87
e 80 90
e 80 91
e 80 95
e 80 96
e 80 114
e 80 126
e 80 131
e 80 145
e 80 148
e 80 173
e 80 182
e 80 188
e 80 194
e 80 207
e 80 222
e 80 229
e 80 230
e 80 240
e 80 247
e 80 248
e 81 95
e 81 96
e 81 106
e 81 108
e 81 119
e 81 142
e 81 149
e 81 164
e 81 168
e 81 176
e 81 179
e 81 185
e 81 207
e 81 213
e 81 225
e 81 237
e 81 253
e 82 98
e 82 110
e 82 119
e 82 124
e 82 125
e 82 131
e 82 150
e 82 152
e 82 186
e 82 212
e 82 216
e 82 224
e 82 238
e 82 243
e 83 86
e 83 90
e 83 93
e 83 104
e 83 111
e 83 121
e 83 127
e 83 154
e 83 168
e 83 180
e 83 188
e 83 201
e 83 204
e 83 218
e 83 231
e 83 240
e 83 255
e 84 89
e 84 95
e 84 106
e 84 175
e 84 183
e 84 224
e 84 226
e 85 123
e 85 141
e 85 173
e 85 209
e 85 221
e 85 239
e 85 240
e 85 244
e 85 251
e 86 106
e 86 108
e 86 130
e 86 135
e 86 136
e 86 148
e 86 158
e 86 167
e 86 174
e 86 211
e 86 214
e 86 230
e 86 231
e 86 244
e 86 248
e 86 251
e 87 91
e 87 93
e 87 94
e 87 98
e 87 110
e 87 116
e 87 122
e 87 148
e 87 150
e 87 160
e 87 168
e 87 170
e 87 172
e 87 182
e 87 188
e 87 190
e 87 200
e 87 203
e 87 204
e 87 205
e 87 209
e 87 226
e 87 227
e 87 241
e 88 89
e 88 100
e 88 108
e 88 115
e 88 120
e 88 132
e 88 148
e 88 158
e 88 163
e 88 174
e 88 190
e 88 191
e 88 205
e 88 207
e 88 211
e 88 238
e 88 252
e 89 131
e 89 142
e 89 146
e 89 169
e 89 208
e 89 237
e 89 245
e 90 92
e 90 95
e 90 101
e 90 105
e 90 111
e 90 112
e 90 137
e 90 151
e 90 162
e 90 164
e 90 173
e 90 185
e 90 235
e 90 243
e 91 103
e 91 135
e 91 139
e 91 149
e 91 154
e 91 159
e 91 176
e 91 201
e 91 204
e 91 214
e 91 247
e 92 103
e 92 121
e 92 122
e 92 123
e 92 129
e 92 131
e 92 141
e 92 149
e 92 157
e 92 192
e 92 211
e 92 240
e 92 253
e 92 255
e 93 95
e 93 97
e 93 111
e 93 116
e 93 121
e 93 128
e 93 130
e 93 138
e 93 172
e 93 176
e 93 178
e 93 202
e 93 210
e 94 103
e 94 114
e 94 119
e 94 143
e 94 152
e 94 175
e 94 183
e 94 242
e 95 112
e 95 129
e 95 138
e 95 141
e 95 164
e 95 187
e 95 193
e 95 238
e 95 250
e 96 104
e 96 107
e 96 123
e 96 147
e 96 173
e 96 188
e 96 198
e 96 216
e 96 218
e 96 235
e 96 249
e 97 106
e 97 116
e 97 124
e 97 126
e 97 131
e 97 137
e 97 145
e 97 151
e 97 158
e 97 163
e 97 174
e 97 180
e 97 193
e 97 223
e 98 112
e 98 133
e 98 138
e 98 155
e 98 157
e 98 160
e 98 162
e 98 164
e 98 169
e 98 190
e 98 205
e 98 237
e 98 240
e 99 102
e 99 130
e 99 133
e 99 171
e 99 175
e 99 176
e 99 177
e 99 186
e 99 194
e 99 206
e 99 236
e 99 240
e 100 107
e 100 117
e 100 132
e 100 134
e 100 141
e 100 152
e 100 153
e 100 206
e 100 253
e 101 106
e 101 117
e 101 126
e 101 185
e 101 219
e 101 226
e 101 255
e 102 106
e 102 107
e 102 125
e 102 134
e 102 145
e 102 159
e 102 165
e 102 173
e 102 183
e 102 193
e 102 217
e 102 252
e 103 127
e 103 136
e 103 137
e 103 194
e 103 210
e 103 212
e 104 149
e 104 231
e 104 236
e 104 242
e 105 109
e 105 141
e 105 165
e 105 167
e 105 189
e 105 203
e 105 209
e 105 214
e 105 250
e 106 115
e 106 127
e 106 145
e 106 161
e 106 170
e 106 181
e 106 186
e 106 210
e 106 221
e 106 229
e 106 233
e 106 236
e 106 255
e 107 114
e 107 127
e 107 155
e 107 216
e 107 225
e 107 232
e 107 236
e 108 114
e 108 122
e 108 134
e 108 138
e 108 139
e 108 156
e 108 181
e 108 183
e 108 206
e 108 227
e 109 136
e 109 162
e 109 176
e 109 178
e 109 186
e 109 232
e 110 118
e 110 119
e 110 124
e 110 143
e 110 181
e 110 190
e 110 215
e 111 146
e 111 148
e 111 149
e 111 152
e 111 241
e 112 122
e 112 127
e 112 132
e 112 135
e 112 157
e 112 214
e 113 135
e 113 174
e 113 179
e 113 200
e 113 233
e 114 152
e 114 153
e 114 160
e 114 167
e 114 228
e 115 129
e 115 151
e 115 154
e 115 159
e 115 165
e 115 185
e 115 213
e 115 240
e 116 118
e 116 152
e 116 164
e 116 195
e 116 204
e 116 218
e 116 253
e 117 120
e 117 128
e 117 151
e 117 163
e 117 174
e 117 194
e 117 216
e 117 229
e 118 126
e 118 157
e 118 161
e 118 181
e 118 191
e 118 193
e 118 196
e 118 210
e 118 218
e 118 225
e 118 234
e 118 247
e 119 122
e 119 125
e 119 164
e 119 166
e 119 171
e 119 186
e 119 193
e 119 232
e 119 235
e 119 238
e 119 241
e 119 244
e 120 139
e 120 172
e 120 181
e 120 182
e 120 199
e 121 122
e 121 124
e 121 132
e 121 140
e 121 141
e 121 149
e 121 178
e 121 179
e 121 187
e 121 188
e 121 217
e 121 229
e 122 126
e 122 133
e 122 147
e 122 150
e 122 163
e 122 201
e 122 210
e 122 220
e 122 240
e 123 128
e 123 145
e 123 148
e 123 149
e 123 190
e 123 245
e 123 249
e 124 154
e 124 168
e 124 179
e 124 194
e 125 143
e 125 161
e 125 220
e 125 235
e 126 129
e 126 228
e 126 232
e 126 249
e 127 131
e 127 145
e 127 177
e 127 178
e 127 189
e 127 192
e 127 237
e 128 157
e 128 167
e 128 200
e 129 136
e 129 145
e 129 160
e 129 247
e 129 254
e 130 135
e 130 137
e 130 159
e 130 184
e 130 187
e 130 191
e 130 192
e 130 202
e 130 219
e 130 221
e 131 147
e 131 163
e 131 166
e 131 179
e 131 180
e 131 196
e 131 224
e 131 230
e 132 139
e 132 144
e 132 147
e 132 160
e 132 185
e 132 208
e 132 213
e 132 219
e 132 220
e 132 226
e 133 148
e 133 178
e 133 182
e 133 194
e 133 241
e 134 148
e 134 151
e 134 155
e 134 166
e 134 169
e 134 186
e 134 191
e 134 204
e 134 215
e 134 239
e 134 250
e 135 142
e 135 162
e 135 186
e 135 188
e 135 236
e 135 238
e 135 244
e 136 140
e 136 155
e 136 156
e 136 174
e 136 246
e 136 254
e 137 140
e 137 144
e 137 190
e 137 205
e 138 172
e 138 185
e 138 193
e 138 202
e 138 212
e 138 215
e 138 233
e 138 248
e 139 140
e 139 143
e 139 167
e 139 211
e 139 220
e 139 223
e 139 229
e 139 255
e 140 171
e 140 179
e 140 180
e 140 189
e 140 190
e 140 198
e 140 207
e 140 235
e 140 249
e 141 172
e 142 156
e 142 207
e 142 222
e 142 246
e 143 144
e 143 151
e 143 161
e 143 165
e 143 167
e 143 176
e 143 194
e 143 217
e 143 223
e 144 146
e 144 147
e 144 159
e 144 203
e 144 247
e 145 170
e 145 172
e 145 197
e 145 250
e 146 165
e 146 176
e 146 178
e 146 180
e 146 184
e 146 201
e 146 206
e 146 208
e 146 212
e 146 251
e 147 160
e 147 181
e 147 185
e 147 201
e 147 209
e 147 210
e 148 155
e 148 173
e 148 175
e 148 192
e 148 193
e 148 198
e 149 150
e 149 174
e 149 189
e 149 195
e 149 208
e 150 155
e 150 163
e 150 166
e 150 171
e 150 202
e 150 212
e 150 247
e 151 182
e 151 202
e 151 249
e 152 161
e 152 173
e 152 188
e 152 206
e 152 218
e 152 228
e 152 243
e 153 156
e 153 172
e 153 175
e 153 184
e 153 226
e 154 175
e 154 197
e 154 224
e 154 253
e 155 166
e 155 171
e 155 184
e 155 204
e 155 220
e 155 222
e 155 250
e 156 159
e 156 176
e 156 187
e 156 192
e 156 203
e 156 205
e 156 226
e 156 229
e 156 243
e 156 250
e 157 189
e 157 191
e 157 197
e 157 215
e 157 229
e 157 239
e 158 160
e 158 174
e 158 229
e 158 250
e 159 177
e 160 184
e 160 189
e 160 205
e 160 246
e 161 246
e 161 250
e 161 253
e 162 164
e 162 167
e 162 178
e 162 183
e 162 250
e 163 196
e 163 200
e 163 203
e 163 205
e 163 207
e 163 239
e 164 165
e 164 169
e 164 183
e 164 245
e 165 211
e 165 231
e 166 183
e 166 184
e 166 196
e 166 198
e 166 200
e 166 202
e 166 235
e 166 246
e 167 178
e 167 184
e 167 193
e 167 196
e 167 227
e 167 244
e 168 198
e 168 220
e 169 199
e 169 203
e 169 232
e 170 216
e 170 219
e 170 243
e 170 247
e 171 177
e 171 183
e 171 189
e 171 191
e 171 203
e 171 205
e 172 173
e 172 182
e 172 228
e 172 230
e 173 234
e 174 209
e 174 237
e 175 220
e 175 229
e 175 238
e 176 190
e 176 194
e 176 195
e 176 214
e 176 248
e 177 223
e 178 221
e 178 250
e 179 239
e 181 198
e 181 209
e 181 242
e 182 199
e 182 206
e 182 219
e 182 225
e 182 246
e 183 204
e 183 212
e 183 228
e 183 252
e 184 188
e 184 198
e 184 205
e 184 223
e 184 228
e 184 255
e 185 186
e 185 194
e 185 244
e 185 248
e 185 253
e 186 197
e 186 199
e 186 201
e 186 204
e 187 214
e 187 223
e 187 226
e 187 249
e 188 224
e 188 232
e 188 241
e 189 206
e 189 252
e 190 200
e 190 213
e 190 231
e 190 254
e 191 213
e 191 221
e 191 235
e 191 240
e 192 197
e 192 222
e 193 226
e 193 229
e 193 252
e 194 195
e 194 208
e 194 228
e 194 251
e 194 253
e 195 204
e 195 217
e 195 241
e 196 198
e 196 200
e 196 232
e 198 214
e 198 222
e 198 233
e 198 245
e 198 246
e 199 210
e 199 212
e 199 233
e 199 255
e 200 219
e 200 241
e 201 202
e 201 212
e 202 242
e 203 249
e 204 245
e 205 215
e 206 233
e 206 242
e 207 211
e 207 254
e 208 216
e 209 215
e 209 222
e 209 247
e 211 232
e 212 234
e 213 214
e 214 228
e 214 246
e 214 253
e 216 220
e 216 222
e 216 241
e 217 236
e 217 247
e 218 233
e 219 234
e 219 254
e 220 232
e 220 234
e 220 240
e 220 242
e 223 230
e 223 238
e 223 246
e 224 232
e 224 237
e 224 251
e 224 253
e 225 226
e 227 247
e 228 245
e 228 248
e 229 232
e 229 234
e 230 231
e 231 243
e 231 253
e 231 255
e 232 235
e 234 246
e 238 255
e 240 241
e 240 248
e 242 251
e 244 249
e 244 252
e 246 254
e 249 255
e 250 253
